Version identifier: 22.1.0.0 | 2022-03-09 | 1a383f8ce
CPXPARAM_Threads                                 1
CPXPARAM_MIP_Strategy_VariableSelect             3
CPXPARAM_TimeLimit                               599.99249316199996
Tried aggregator 1 time.
MIP Presolve eliminated 13 rows and 0 columns.
MIP Presolve modified 1 coefficients.
Reduced MIP has 1812 rows, 7500 columns, and 81538 nonzeros.
Reduced MIP has 7500 binaries, 0 generals, 0 SOSs, and 0 indicators.
Presolve time = 0.06 sec. (38.88 ticks)
Probing time = 0.01 sec. (6.03 ticks)
Tried aggregator 1 time.
Detecting symmetries...
Reduced MIP has 1812 rows, 7500 columns, and 81538 nonzeros.
Reduced MIP has 7500 binaries, 0 generals, 0 SOSs, and 0 indicators.
Presolve time = 0.06 sec. (47.99 ticks)
Probing time = 0.01 sec. (6.03 ticks)
Clique table members: 1194.
MIP emphasis: balance optimality and feasibility.
MIP search method: dynamic search.
Parallel mode: none, using 1 thread.
Root relaxation solution time = 1.49 sec. (1559.48 ticks)

        Nodes                                         Cuts/
   Node  Left     Objective  IInf  Best Integer    Best Bound    ItCnt     Gap

      0     0        0.0000  1383                      0.0000     4882         
      0     0        0.0000   596                  Cliques: 3     9460         
      0     2        0.0000   338                      0.0000     9460         
Elapsed time = 44.91 sec. (47133.18 ticks, tree = 0.01 MB, solutions = 0)
      1     3        0.0000   768                      0.0000    20075         
      2     4        0.0000   462                      0.0000    25977         
      3     5        0.0000  1083                      0.0000    33737         
      4     6        0.0000   453                      0.0000    33896         
      5     7        0.0000   771                      0.0000    34711         
      6     8        0.0000   470                      0.0000    35473         
      7     9        0.0000   902                      0.0000    45277         
      8    10        0.0000   511                      0.0000    47281         
      9    11        0.0000   819                      0.0000    58279         
     10    12        0.0000   479                      0.0000    58479         
Elapsed time = 67.98 sec. (71077.84 ticks, tree = 0.12 MB, solutions = 0)
     13    15        0.0000   399                      0.0000    62928         
     14    16        0.0000   810                      0.0000    71774         
     16    18        0.0000   686                      0.0000    78734         
     18    20        0.0000   373                      0.0000    82110         
     19    21        0.0000   619                      0.0000    91544         
     20    22        0.0000  1018                      0.0000    97495         
     22    22    infeasible                            0.0000   120518         
     24    24        0.0000   625                      0.0000   140610         
     26    26        0.0000   741                      0.0000   148147         
     28    26    infeasible                            0.0000   164092         
Elapsed time = 113.60 sec. (118248.43 ticks, tree = 0.34 MB, solutions = 0)
     30    28        0.0000  1037                      0.0000   170413         
     31    29        0.0000   729                      0.0000   178239         
     32    30        0.0000   835                      0.0000   188461         
     34    32        0.0000   692                      0.0000   196184         
     36    34        0.0000   745                      0.0000   202226         
     38    36        0.0000   741                      0.0000   209459         
     39    37        0.0000   946                      0.0000   220086         
     40    38        0.0000   736                      0.0000   220157         
     42    40        0.0000   730                      0.0000   227803         
     44    42        0.0000   823                      0.0000   237782         
Elapsed time = 140.26 sec. (143329.35 ticks, tree = 0.38 MB, solutions = 0)
     47    45        0.0000   715                      0.0000   247497         
     48    44    infeasible                            0.0000   262721         
     50    46        0.0000   813                      0.0000   271685         
     52    48        0.0000   882                      0.0000   279007         
     54    50        0.0000   827                      0.0000   286408         
     56    50    infeasible                            0.0000   315165         
     58    50    infeasible                            0.0000   333391         
     60    52        0.0000   736                      0.0000   340626         
     62    54        0.0000   611                      0.0000   347146         
     63    55        0.0000   614                      0.0000   352690         
Elapsed time = 174.13 sec. (175796.93 ticks, tree = 0.42 MB, solutions = 0)
     64    56        0.0000   581                      0.0000   359020         
     65    57        0.0000   578                      0.0000   366838         
     66    56    infeasible                            0.0000   372810         
     68    58        0.0000   581                      0.0000   379328         
     69    57    infeasible                            0.0000   388712         
     71    59        0.0000   517                      0.0000   396383         
     72    60        0.0000   517                      0.0000   402458         
     74    60    infeasible                            0.0000   409594         
     76    62        0.0000   519                      0.0000   416963         
     78    62    infeasible                            0.0000   427475         
Elapsed time = 198.28 sec. (199867.65 ticks, tree = 0.50 MB, solutions = 0)
     80    64        0.0000   479                      0.0000   428294         
     81    63    infeasible                            0.0000   437144         
     83    65        0.0000   520                      0.0000   444935         
     84    66        0.0000   458                      0.0000   449776         
     86    66        0.0000   511                      0.0000   458838         
     87    67        0.0000   583                      0.0000   463260         
     90    70        0.0000   521                      0.0000   468221         
     92    72        0.0000   507                      0.0000   473624         
     94    72    infeasible                            0.0000   485450         
     97    75        0.0000   516                      0.0000   492684         
Elapsed time = 222.55 sec. (223113.35 ticks, tree = 0.61 MB, solutions = 0)
     99    75        0.0000   516                      0.0000   505420         
    100    76        0.0000   555                      0.0000   510487         
    102    76    infeasible                            0.0000   529412         
    104    76    infeasible                            0.0000   549826         
    106    76    infeasible                            0.0000   568246         
    109    79        0.0000   577                      0.0000   575871         
    110    80        0.0000   703                      0.0000   585189         
    112    82        0.0000   572                      0.0000   599006         
    115    83        0.0000   544                      0.0000   609317         
    117    83        0.0000   548                      0.0000   622888         
Elapsed time = 238.01 sec. (235580.02 ticks, tree = 0.64 MB, solutions = 0)
    119    85        0.0000   560                      0.0000   632304         
    121    85        0.0000   546                      0.0000   645678         
    124    84    infeasible                            0.0000   673996         
    126    84    infeasible                            0.0000   688638         
    128    86        0.0000   655                      0.0000   701638         
    130    86    infeasible                            0.0000   714546         
    132    86    infeasible                            0.0000   727762         
    135    87        0.0000   548                      0.0000   738992         
    138    86    infeasible                            0.0000   757646         
    140    88        0.0000   498                      0.0000   773787         
Elapsed time = 254.17 sec. (248379.19 ticks, tree = 0.65 MB, solutions = 0)
    142    88    infeasible                            0.0000   785199         
    144    90        0.0000   433                      0.0000   796156         
    146    90        0.0000   440                      0.0000   806263         
    148    92        0.0000   441                      0.0000   814211         
    150    92        0.0000   482                      0.0000   830295         
    152    92    infeasible                            0.0000   844711         
    154    92    infeasible                            0.0000   855753         
    157    93        0.0000   481                      0.0000   868032         
    160    92    infeasible                            0.0000   892118         
    163    93        0.0000   482                      0.0000   904117         
Elapsed time = 269.76 sec. (260825.34 ticks, tree = 0.67 MB, solutions = 0)
    167    95        0.0000   476                      0.0000   915027         
    170    96        0.0000   473                      0.0000   926780         
    173    97        0.0000   445                      0.0000   939440         
    177    95    infeasible                            0.0000   954636         
    178    96        0.0000   601                      0.0000   969053         
    179    97        0.0000  1106                      0.0000   975471         
    181    99        0.0000  1017                      0.0000   981768         
    183   101        0.0000  1245                      0.0000   993112         
    185   103        0.0000  1193                      0.0000  1003745         
    192   110        0.0000   823                      0.0000  1020494         
Elapsed time = 293.35 sec. (282923.60 ticks, tree = 0.70 MB, solutions = 0)
    195   113        0.0000   875                      0.0000  1050442         
    197   115        0.0000   748                      0.0000  1075694         
    199   115    infeasible                            0.0000  1112495         
    200   116        0.0000   457                      0.0000  1120164         
    202   116        0.0000   467                      0.0000  1136662         
    205   117    infeasible                            0.0000  1158306         
    207   117    infeasible                            0.0000  1195174         
    211   117    infeasible                            0.0000  1212444         
    213   117    infeasible                            0.0000  1230135         
    215   117    infeasible                            0.0000  1242664         
Elapsed time = 351.23 sec. (339475.50 ticks, tree = 0.73 MB, solutions = 0)
    217   119        0.0000   419                      0.0000  1253305         
    223   123        0.0000   347                      0.0000  1268189         
    226   124        0.0000   340                      0.0000  1283815         
    229   125        0.0000   512                      0.0000  1307053         
    231   125    infeasible                            0.0000  1344496         
    234   126    infeasible                            0.0000  1357631         
    237   127        0.0000   375                      0.0000  1378164         
    240   128        0.0000   359                      0.0000  1394842         
    243   129        0.0000   327                      0.0000  1414398         
    246   130        0.0000   350                      0.0000  1430024         
Elapsed time = 398.33 sec. (386216.67 ticks, tree = 0.77 MB, solutions = 0)
    250   130        0.0000   291                      0.0000  1443290         
    253   131    infeasible                            0.0000  1460730         
    258   132        0.0000   312                      0.0000  1468962         
    266   134        0.0000   308                      0.0000  1472626         
    275   135    infeasible                            0.0000  1475326         
    283   137        0.0000   334                      0.0000  1478758         
    288   136    infeasible                            0.0000  1481473         
    291   133    infeasible                            0.0000  1482901         
    298   132        0.0000   415                      0.0000  1485620         
    303   135        0.0000   361                      0.0000  1487216         
Elapsed time = 438.60 sec. (428504.08 ticks, tree = 0.78 MB, solutions = 0)
    314   138    infeasible                            0.0000  1488543         
    324   142        0.0000   346                      0.0000  1490504         
    334   148        0.0000   328                      0.0000  1492684         
    341   143    infeasible                            0.0000  1494368         
    346   140        0.0000   347                      0.0000  1495138         
    350   140        0.0000   365                      0.0000  1502146         
    354   140        0.0000   373                      0.0000  1508632         
    359   141    infeasible                            0.0000  1517959         
    363   141    infeasible                            0.0000  1531548         
    368   142    infeasible                            0.0000  1537507         
Elapsed time = 477.13 sec. (472109.72 ticks, tree = 0.81 MB, solutions = 0)
    374   142    infeasible                            0.0000  1544472         
    380   142    infeasible                            0.0000  1550488         
    388   142    infeasible                            0.0000  1556554         
    395   143        0.0000   431                      0.0000  1561732         
    402   144    infeasible                            0.0000  1567338         
    409   147    infeasible                            0.0000  1572270         
    417   149    infeasible                            0.0000  1577060         
    425   155        0.0000   378                      0.0000  1580840         
    433   159    infeasible                            0.0000  1585725         
    442   160        0.0000   370                      0.0000  1590010         
Elapsed time = 512.86 sec. (513256.84 ticks, tree = 0.86 MB, solutions = 0)
    449   159    infeasible                            0.0000  1596499         
    458   166    infeasible                            0.0000  1598627         
    466   166    infeasible                            0.0000  1604380         
    474   166    infeasible                            0.0000  1610136         
    482   166    infeasible                            0.0000  1616241         
    489   167        0.0000   405                      0.0000  1621329         
    497   167        0.0000   403                      0.0000  1626402         
    504   168        0.0000   334                      0.0000  1632630         
    512   172        0.0000   334                      0.0000  1638018         
    522   170    infeasible                            0.0000  1643919         
Elapsed time = 549.33 sec. (554984.01 ticks, tree = 0.89 MB, solutions = 0)
    529   171        0.0000   390                      0.0000  1649922         
    535   169        0.0000   342                      0.0000  1653201         
    541   171        0.0000   419                      0.0000  1658950         
    550   170    infeasible                            0.0000  1663508         
    560   172        0.0000   312                      0.0000  1666436         
    568   170    infeasible                            0.0000  1671128         
    577   171    infeasible                            0.0000  1677345         
    585   169    infeasible                            0.0000  1681032         
    595   173        0.0000   314                      0.0000  1684672         
    602   170    infeasible                            0.0000  1688608         
Elapsed time = 586.00 sec. (596145.71 ticks, tree = 0.89 MB, solutions = 0)
    611   169    infeasible                            0.0000  1692785         
    621   169        0.0000   341                      0.0000  1698133         
    630   170        0.0000   342                      0.0000  1703281         

Clique cuts applied:  4
Zero-half cuts applied:  5

Root node processing (before b&c):
  Real time             =   44.79 sec. (47051.49 ticks)
Sequential b&c:
  Real time             =  555.20 sec. (564806.66 ticks)
                          ------------
Total (root+branch&cut) =  600.00 sec. (611858.15 ticks)
Primal:	1
Dual:	299
Status:	Feasible
Time:	600.054
Sequence:
	0
